
Gurobi 10.0.1 (mac64[arm]) logging started Mon Sep 18 22:41:07 2023

Set parameter LogFile to value "base_scenario/results/mip_log.txt"
Gurobi Optimizer version 10.0.1 build v10.0.1rc0 (mac64[arm])

CPU model: Apple M1
Thread count: 8 physical cores, 8 logical processors, using up to 8 threads

Optimize a model with 1694 rows, 6293 columns and 24772 nonzeros
Model fingerprint: 0xed31abcf
Model has 8978 general constraints
Variable types: 1 continuous, 6292 integer (408 binary)
Coefficient statistics:
  Matrix range     [6e-02, 3e+05]
  Objective range  [9e-02, 2e+05]
  Bounds range     [1e+00, 2e+07]
  RHS range        [4e+03, 2e+04]
  GenCon rhs range [1e+00, 1e+00]
  GenCon coe range [1e+00, 1e+00]
Presolve removed 44 rows and 373 columns
Presolve time: 0.07s
Presolved: 1650 rows, 5920 columns, 23713 nonzeros
Presolved model has 4 SOS constraint(s)
Variable types: 0 continuous, 5920 integer (34 binary)

Root relaxation: objective 5.259885e+07, 7463 iterations, 0.09 seconds (0.13 work units)

    Nodes    |    Current Node    |     Objective Bounds      |     Work
 Expl Unexpl |  Obj  Depth IntInf | Incumbent    BestBd   Gap | It/Node Time

     0     0 5.2599e+07    0  338          - 5.2599e+07      -     -    0s
H    0     0                    5.970778e+07 5.3698e+07  10.1%     -    0s
     0     0 5.3701e+07    0  746 5.9708e+07 5.3701e+07  10.1%     -    0s
     0     0 5.3701e+07    0  731 5.9708e+07 5.3701e+07  10.1%     -    0s
     0     0 5.3794e+07    0  739 5.9708e+07 5.3794e+07  9.90%     -    0s
     0     0 5.3794e+07    0  789 5.9708e+07 5.3794e+07  9.90%     -    0s
     0     0 5.3794e+07    0  740 5.9708e+07 5.3794e+07  9.90%     -    0s
     0     0 5.3806e+07    0  740 5.9708e+07 5.3806e+07  9.89%     -    0s
     0     0 5.3867e+07    0  811 5.9708e+07 5.3867e+07  9.78%     -    0s
     0     0 5.3873e+07    0  809 5.9708e+07 5.3873e+07  9.77%     -    0s
     0     0 5.3875e+07    0  812 5.9708e+07 5.3875e+07  9.77%     -    0s
     0     0 5.3909e+07    0  816 5.9708e+07 5.3909e+07  9.71%     -    0s
     0     0 5.3909e+07    0  819 5.9708e+07 5.3909e+07  9.71%     -    0s
     0     0 5.3909e+07    0  819 5.9708e+07 5.3909e+07  9.71%     -    0s
H    0     0                    5.969907e+07 5.3923e+07  9.68%     -    0s
     0     0 5.3928e+07    0  833 5.9699e+07 5.3928e+07  9.67%     -    0s
     0     0 5.3952e+07    0  807 5.9699e+07 5.3952e+07  9.63%     -    0s
H    0     0                    5.779320e+07 5.3952e+07  6.65%     -    0s
     0     2 5.3952e+07    0  800 5.7793e+07 5.3952e+07  6.65%     -    0s
H   33    40                    5.772741e+07 5.4229e+07  6.06%   606    1s
H   37    40                    5.758955e+07 5.4229e+07  5.84%   581    1s
H   38    40                    5.758663e+07 5.4229e+07  5.83%   577    1s
H   74    75                    5.670868e+07 5.4244e+07  4.35%   413    1s
H 1150   765                    5.670868e+07 5.4527e+07  3.85%   150    3s
H 1495   968                    5.670868e+07 5.4607e+07  3.71%   133    4s
H 1530   949                    5.670867e+07 5.4607e+07  3.71%   140    4s
H 1531   903                    5.670832e+07 5.4607e+07  3.71%   140    4s
H 1665   926                    5.670715e+07 5.4607e+07  3.70%   142    5s
H 2365   915                    5.670704e+07 5.4607e+07  3.70%   132    6s
H 3654  1083                    5.666888e+07 5.4607e+07  3.64%   120    7s
H 3784  1042                    5.662879e+07 5.4607e+07  3.57%   117    7s
H 4056  1112                    5.662878e+07 5.4607e+07  3.57%   116    7s
H 4883  1406                    5.659337e+07 5.4607e+07  3.51%   112    8s
H 6022  2018                    5.659334e+07 5.4607e+07  3.51%   104    9s
H 6072  1631                    5.651944e+07 5.4607e+07  3.38%   104    9s
H 6185  1624                    5.648568e+07 5.4607e+07  3.33%   102    9s
  6200  1561 5.5106e+07   30  259 5.6486e+07 5.4607e+07  3.33%   102   10s
H 7051  1758                    5.635496e+07 5.4607e+07  3.10%   103   10s
H 7061  1758                    5.635496e+07 5.4607e+07  3.10%   103   10s
H 7808  1978                    5.635496e+07 5.4607e+07  3.10%   106   11s
 11313  2802 5.4607e+07   24  204 5.6355e+07 5.4607e+07  3.10%   110   15s
H13467  3016                    5.635496e+07 5.4607e+07  3.10%   112   17s
 15631  3206 infeasible   32      5.6355e+07 5.4607e+07  3.10%   116   20s
 20979  3897 5.4790e+07   28  247 5.6355e+07 5.4607e+07  3.10%   120   25s
 26261  4078 5.4783e+07   33  281 5.6355e+07 5.4607e+07  3.10%   124   30s
H27048  4079                    5.632184e+07 5.4614e+07  3.03%   124   32s
 28566  3982 infeasible   27      5.6322e+07 5.4657e+07  2.96%   125   35s
H31006  3866                    5.632100e+07 5.4726e+07  2.83%   127   38s
 32858  3637 5.5198e+07   33   68 5.6321e+07 5.4783e+07  2.73%   130   40s
H33670  3582                    5.632100e+07 5.4807e+07  2.69%   130   41s
H34199  3582                    5.632100e+07 5.4811e+07  2.68%   130   41s
 37344  2988 5.5151e+07   28   39 5.6321e+07 5.4934e+07  2.46%   132   45s
H42755  2414                    5.632100e+07 5.5043e+07  2.27%   131   49s
 42868  2040 5.5211e+07   24   76 5.6321e+07 5.5080e+07  2.20%   131   50s
 46176  1810 infeasible   31      5.6321e+07 5.5912e+07  0.73%   134   55s
*47141  1432              41    5.632100e+07 5.5917e+07  0.72%   131   55s

Explored 48763 nodes (6219604 simplex iterations) in 55.32 seconds (72.50 work units)
Thread count was 8 (of 8 available processors)

Solution count 10: 5.6321e+07 5.6321e+07 5.6321e+07 ... 5.6355e+07

Optimal solution found (tolerance 1.00e-04)
Best objective 5.632099695800e+07, best bound 5.632099623796e+07, gap 0.0000%
